data/solutions/recovery/degenerate/moderate/flexible/degenerate_moderate_instance20/53.sol
Elapsed time: 6.36
Upper bound: 154407158.0
Planning weighted value: 2210629937.0
C[0]=154407158.0
C[1]=154282721.0
C[2]=154181557.0
C[3]=154078430.0
y[0]=2
y[1]=2
y[2]=2
y[3]=2
y[4]=2
y[5]=3
y[6]=0
y[7]=0
y[8]=2
y[9]=1
y[10]=1
y[11]=3
y[12]=2
y[13]=0
y[14]=0
y[15]=3
y[16]=2
y[17]=1
y[18]=3
y[19]=3
y[20]=0
y[21]=3
y[22]=2
y[23]=1
y[24]=0
y[25]=0
y[26]=0
y[27]=0
y[28]=0
y[29]=3
y[30]=3
y[31]=0
y[32]=1
y[33]=2
y[34]=1
y[35]=1
